proyfinal/src/viki/013/andrea/andrea-localstore/experimentInOfficeAgust.take6/worker_1/2939519c-b943-4d1a-ae96-444460a3b8a4.als.cnf.out
Reading from standard input... Use '--help' for help.
============================[ Problem Statistics ]=============================
|                                                                             |
|  Number of variables:         87638                                         |
|  Number of clauses:          161767                                         |
|  Parse time:                   0.04 s                                       |
|                                                                             |
============================[ Search Statistics ]==============================
| Conflicts |          ORIGINAL         |          LEARNT          | Progress |
|           |    Vars  Clauses Literals |    Limit  Clauses Lit/Cl |          |
===============================================================================
|       100 |   62673   106212   265494 |    38944      100      9 | 28.487 % |
|       250 |   62673   106212   265494 |    42838      250     31 | 28.487 % |
|       475 |   62673   106212   265494 |    47122      475     62 | 28.487 % |
|       812 |   62672   106168   265404 |    51834      811     79 | 28.488 % |
|      1318 |   62672   106168   265404 |    57018     1317    123 | 28.488 % |
|      2077 |   62592   105856   264678 |    62720     1948    111 | 28.579 % |
|      3216 |   48032    64352   162516 |    68992     2972    121 | 45.193 % |
|      4924 |   47713    63062   159429 |    75891     4581     97 | 45.557 % |
|      7486 |   47280    61364   155432 |    83480     7108     79 | 46.051 % |
===============================================================================
restarts              : 38
conflicts             : 9197           (7350 /sec)
decisions             : 32826          (0.00 % random) (26233 /sec)
propagations          : 13520008       (10804683 /sec)
conflict literals     : 631099         (39.15 % deleted)
Memory used           : 29.37 MB
CPU time              : 1.25131 s

UNSATISFIABLE
